p cnf 46 41
-1 5 27 28 29 36 42 0 
-2 42 0 
-3 6 37 39 40 42 0 
-4 42 0 
-5 1 27 28 29 36 42 0 
-6 3 37 39 40 42 0 
-7 8 9 10 11 12 13 14 15 16 17 18 19 20 21 22 23 24 35 38 42 0 
-8 7 9 10 11 12 13 14 15 16 17 18 19 20 21 22 23 24 35 38 42 0 
-9 7 8 10 11 12 13 14 15 16 17 18 19 20 21 22 23 24 35 38 42 0 
-10 7 8 9 11 12 13 14 15 16 17 18 19 20 21 22 23 24 35 38 42 0 
-11 7 8 9 10 12 13 14 15 16 17 18 19 20 21 22 23 24 35 38 42 0 
-12 7 8 9 10 11 13 14 15 16 17 18 19 20 21 22 23 24 35 38 42 0 
-13 7 8 9 10 11 12 14 15 16 17 18 19 20 21 22 23 24 35 38 42 0 
-14 7 8 9 10 11 12 13 15 16 17 18 19 20 21 22 23 24 35 38 42 0 
-15 7 8 9 10 11 12 13 14 16 17 18 19 20 21 22 23 24 35 38 42 0 
-16 7 8 9 10 11 12 13 14 15 17 18 19 20 21 22 23 24 35 38 42 0 
-17 7 8 9 10 11 12 13 14 15 16 18 19 20 21 22 23 24 35 38 42 0 
-18 7 8 9 10 11 12 13 14 15 16 17 19 20 21 22 23 24 35 38 42 0 
-19 7 8 9 10 11 12 13 14 15 16 17 18 20 21 22 23 24 35 38 42 0 
-20 7 8 9 10 11 12 13 14 15 16 17 18 19 21 22 23 24 35 38 42 0 
-21 7 8 9 10 11 12 13 14 15 16 17 18 19 20 22 23 24 35 38 42 0 
-22 7 8 9 10 11 12 13 14 15 16 17 18 19 20 21 23 24 35 38 42 0 
-23 7 8 9 10 11 12 13 14 15 16 17 18 19 20 21 22 24 35 38 42 0 
-24 7 8 9 10 11 12 13 14 15 16 17 18 19 20 21 22 23 35 38 42 0 
-25 34 43 0 
-26 44 0 
-27 1 5 28 29 36 45 0 
-28 1 5 27 29 36 42 0 
-29 1 5 27 28 36 42 0 
-30 31 32 33 41 42 0 
-31 30 32 33 41 42 0 
-32 30 31 33 41 42 0 
-33 30 31 32 41 42 0 
-34 25 46 0 
-35 7 8 9 10 11 12 13 14 15 16 17 18 19 20 21 22 23 24 38 42 0 
-36 1 5 27 28 29 42 0 
-37 3 6 39 40 42 0 
-38 7 8 9 10 11 12 13 14 15 16 17 18 19 20 21 22 23 24 35 42 0 
-39 3 6 37 40 42 0 
-40 3 6 37 39 42 0 
-41 30 31 32 33 42 0 
